nApps = 210
nRes = 9
nActs = 422
nNetworks = 6

assignmentToResources = [3,2,2,1,1,3,3,3,1,3,1,3,2,1,2,1,3,3,2,2,2,2,2,3,1,1,1,3,3,2,2,2,1,1,2,2,3,1,3,2,2,1,2,2,2,3,3,3,3,3,3,2,2,2,2,2,1,2,1,1,1,1,3,1,1,3,3,1,1,1,3,3,1,2,2,2,2,1,2,3,1,1,1,1,1,3,3,1,2,1,3,2,1,1,2,1,3,1,3,1,6,6,6,6,5,5,5,5,5,4,4,4,4,6,6,6,6,6,6,4,4,6,4,4,5,5,4,4,5,5,5,4,4,4,6,6,6,6,5,5,5,5,5,6,6,6,4,4,6,5,5,5,5,5,5,5,4,5,5,5,5,5,6,4,4,4,6,6,6,6,5,5,5,5,4,5,5,5,5,5,5,6,6,6,6,5,5,5,5,5,5,5,5,4,5,4,4,4,4,6,4,6,6,6,6,6,5,5,5,5,5,5,5,5,4,6,4,4,4,4,4,4,6,6,6,6,4,5,5,4,5,5,5,6,6,4,6,6,4,5,7,6,7,4,8,4,9,6,8,5,7,4,8,6,8,5,7,4,9,5,9,5,7,4,8,5,7,6,7,4,8,4,8,6,7,4,8,5,7,6,8,6,8,8,7,7,8,9,7,9,9,7,9,9,8,9,7,8,8,7,8,8,9,8,7,9,9,7,7,8,9,9,7,7,9,8,9,7,7,7,8,7,7,7,7,7,8,8,7,9,8,8,9,7,9,7,7,7,7,9,9,7,7,9,7,8,9,8,9,8,7,7,7,9,9,9,7,9,9,7,7,7,9,7,7,8,7,8,7,7,7,9,7,7,7,7,9,7,9,8,8,8,7,9,8,8,7,7,7,7,7,9,9,7,7,9,7,9,7,9,8,9,8,8,9,7,7,7,8,9,7,9,9,7,9,7,7,8,9,8,7,9];

processingTimes = [72,152,136,96,136,56,48,120,136,72,112,128,136,136,112,144,136,168,72,136,72,168,96,112,136,88,128,128,112,136,136,104,128,152,104,136,152,96,112,104,96,144,80,56,160,72,112,160,96,112,112,104,136,120,128,112,104,56,136,152,136,120,104,96,120,96,88,80,128,136,64,112,104,136,104,112,120,128,136,128,112,120,64,120,128,112,160,112,48,144,120,168,104,64,104,104,144,112,136,56,4,4,500,8,4,4,4,4,4,1000,3,3,4,500,4,3,500,3,4,8,500,4,3,3,4,4,4,4,8,3,3,3,5,5,4,3,5,500,3,4,13,8,500,5,23,23,3,3,500,3,4,23,3,4,13,1000,4,4,4,5,28,23,3,4,4,1000,8,8,3,500,13,3,5,1000,9,1000,1000,3,13,5,3,500,3,3,100,5,5,3,3,3,4,3,4,13,5,4,500,3,500,3,3,5,3,4,4,8,3,1000,4,8,4,3,1000,3,3,3,1000,23,3,500,12,1000,4,4,5,3,13,3,1000,3,4,3,1000,3,3,5,4,4,3,4,4,500,500,500,500,3,3,5,5,4,4,4,4,4,4,3,3,3,3,5,5,3,3,4,4,3,3,500,500,500,500,500,500,500,500,500,500,500,500,500,500,500,500,4,4,500,8,4,4,4,4,4,1000,3,3,4,500,4,3,500,3,4,8,500,4,3,3,4,4,4,4,8,3,3,3,5,5,4,3,5,500,3,4,13,8,500,5,23,23,3,3,500,3,4,23,3,4,13,1000,4,4,4,5,28,23,3,4,4,1000,8,8,3,500,13,3,5,1000,9,1000,1000,3,13,5,3,500,3,3,100,5,5,3,3,3,4,3,4,13,5,4,500,3,500,3,3,5,3,4,4,8,3,1000,4,8,4,3,1000,3,3,3,1000,23,3,500,12,1000,4,4,5,3,13,3,1000,3,4,3,1000,3,3,5,4,4,3];

periods = [10000,100000,10000,10000,20000,100000,5000,20000,100000,10000,100000,10000,20000,100000,10000,2000,10000,10000,100000,5000,10000,20000,5000,20000,20000,20000,10000,10000,2000,20000,20000,20000,20000,20000,10000,10000,10000,10000,100000,100000,10000,2000,10000,100000,10000,20000,20000,20000,50000,10000,1000,20000,20000,20000,100000,1000,20000,10000,100000,5000,20000,100000,10000,20000,20000,10000,100000,100000,100000,10000,10000,10000,10000,10000,100000,100000,20000,5000,1000,2000,10000,2000,10000,10000,20000,100000,10000,20000,10000,100000,100000,100000,100000,100000,100000,10000,20000,10000,10000,10000,10000,10000,10000,10000,100000,100000,100000,10000,10000,10000,10000,20000,20000,100000,100000,5000,5000,5000,20000,100000,100000,10000,100000,100000,20000,20000,100000,100000,10000,10000,10000,2000,2000,2000,10000,10000,10000,10000,100000,100000,5000,10000,5000,20000,20000,20000,10000,10000,10000,20000,20000,20000,20000,20000,20000,20000,20000,10000,10000,10000,10000,10000,10000,10000,10000,10000,100000,100000,100000,100000,100000,100000,10000,10000,2000,10000,10000,10000,100000,10000,10000,20000,50000,50000,1000,20000,20000,20000,20000,20000,20000,100000,100000,20000,10000,100000,20000,100000,100000,10000,20000,100000,100000,10000,10000,10000,10000,10000,100000,100000,100000,100000,20000,20000,5000,2000,10000,10000,10000,10000,20000,20000,100000,100000,10000,10000,20000,10000,10000,100000,100000,100000,100000,20000,20000,10000,10000,10000,10000,20000,20000,5000,5000,5000,5000,10000,10000,10000,10000,20000,20000,20000,20000,20000,20000,20000,20000,20000,20000,20000,20000,20000,20000,20000,20000,20000,20000,10000,10000,10000,10000,10000,10000,10000,10000,10000,10000,10000,10000,100000,100000,100000,100000,10000,10000,10000,10000,100000,100000,100000,10000,10000,10000,10000,20000,20000,100000,100000,5000,5000,5000,20000,100000,100000,10000,100000,100000,20000,20000,100000,100000,10000,10000,10000,2000,2000,2000,10000,10000,10000,10000,100000,100000,5000,10000,5000,20000,20000,20000,10000,10000,10000,20000,20000,20000,20000,20000,20000,20000,20000,10000,10000,10000,10000,10000,10000,10000,10000,10000,100000,100000,100000,100000,100000,100000,10000,10000,2000,10000,10000,10000,100000,10000,10000,20000,50000,50000,1000,20000,20000,20000,20000,20000,20000,100000,100000,20000,10000,100000,20000,100000,100000,10000,20000,100000,100000,10000,10000,10000,10000,10000,100000,100000,100000,100000,20000,20000,5000,2000,10000,10000,10000,10000,20000,20000,100000,100000,10000,10000,20000,10000,10000,100000,100000,100000,100000,20000,20000,10000,10000,10000,10000];

assignmentToClusters = [1,2,3,4,5,6,7,8,9,10,11,12,13,14,15,16,17,18,19,7,20,13,21,22,13,13,12,23,24,5,25,26,13,13,27,28,12,29,30,31,32,33,34,35,36,13,13,13,37,12,38,13,13,39,19,40,41,12,42,43,44,45,18,46,47,48,30,49,50,51,52,53,54,18,30,55,13,7,56,57,18,58,18,18,59,60,61,62,18,63,64,19,65,66,64,67,68,69,70,71,72,73,74,75,76,77,78,79,80,81,82,83,84,85,86,87,88,89,90,91,92,93,94,95,96,97,98,99,100,101,102,103,104,105,106,107,108,109,110,111,112,113,114,115,116,117,118,119,120,121,122,123,124,125,126,127,128,129,130,131,132,133,134,135,136,137,138,139,140,141,142,143,144,145,146,147,148,149,150,151,152,153,154,155,156,157,158,159,160,161,162,163,164,165,166,167,168,169,170,171,172,173,174,175,176,177,178,179,180,181,182,183,184,185,186,187,188,189,190,191,192,193,194,195,196,197,198,199,200,201,202,203,204,205,206,207,208,209,210,5,5,7,7,7,7,12,12,12,12,13,13,13,13,13,13,13,13,13,13,13,13,13,13,13,13,13,13,18,18,18,18,18,18,18,18,18,18,18,18,30,30,64,64,72,73,74,75,76,77,78,79,80,81,82,83,84,85,86,87,88,89,90,91,92,93,94,95,96,97,98,99,100,101,102,103,104,105,106,107,108,109,110,111,112,113,114,115,116,117,118,119,120,121,122,123,124,125,126,127,128,129,130,131,132,133,134,135,136,137,138,139,140,141,142,143,144,145,146,147,148,149,150,151,152,153,154,155,156,157,158,159,160,161,162,163,164,165,166,167,168,169,170,171,172,173,174,175,176,177,178,179,180,181,182,183,184,185,186,187,188,189,190,191,192,193,194,195,196,197,198,199,200,201,202,203,204,205,206,207,208,209,210];

precedenceAdjList = [[],[],[],[],[240],[],[],[],[],[],[],[49,246],[],[],[],[],[],[],[],[244],[],[264],[],[],[262],[266],[],[],[],[],[],[],[250],[256],[],[],[11],[],[],[],[],[],[],[],[],[],[258],[260],[],[],[],[252,254],[51],[],[18],[],[],[248],[],[],[],[],[],[],[],[],[38],[],[],[],[],[],[],[270,272],[280],[],[51],[242],[],[],[278],[],[268],[274],[],[],[],[],[276],[],[],[54],[],[],[282],[],[],[],[],[],[],[],[],[],[],[],[],[],[],[],[],[],[],[],[],[],[],[],[],[],[],[],[],[],[],[],[],[],[],[],[],[],[],[],[],[],[],[],[],[],[],[],[],[],[],[],[],[],[],[],[],[],[],[],[],[],[],[],[],[],[],[],[],[],[],[],[],[],[],[],[],[],[],[],[],[],[],[],[],[],[],[],[],[],[],[],[],[],[],[],[],[],[],[],[],[],[],[],[],[],[],[],[],[],[],[],[],[],[],[],[],[],[],[],[],[],[],[],[],[],[],[],[],[],[],[],[],[],[],[],[],[],[],[],[],[],[],[],[],[29],[239],[6],[241],[77],[243],[26],[245],[11],[247],[12],[249],[32],[251],[45],[253],[52],[255],[33],[257],[51],[259],[76],[261],[24],[263],[21],[265],[17],[267],[83],[269],[82],[271],[62],[273],[83],[275],[88],[277],[66],[279],[90],[281],[100],[101],[102],[103],[104],[105],[106],[107],[108],[109],[110],[111],[112],[113],[114],[115],[116],[117],[118],[119],[120],[121],[122],[123],[124],[125],[126],[127],[128],[129],[130],[131],[132],[133],[134],[135],[136],[137],[138],[139],[140],[141],[142],[143],[144],[145],[146],[147],[148],[149],[150],[151],[152],[153],[154],[155],[156],[157],[158],[159],[160],[161],[162],[163],[164],[165],[166],[167],[168],[169],[170],[171],[172],[173],[174],[175],[176],[177],[178],[179],[180],[181],[182],[183],[184],[185],[186],[187],[188],[189],[190],[191],[192],[193],[194],[195],[196],[197],[198],[199],[200],[201],[202],[203],[204],[205],[206],[207],[208],[209],[210],[211],[212],[213],[214],[215],[216],[217],[218],[219],[220],[221],[222],[223],[224],[225],[226],[227],[228],[229],[230],[231],[232],[233],[234],[235],[236],[237],[238]];